842957256345658195508,14,1,2,08,2,1,2,014,12,1,2,06,3,1,2,02,3,1,2,02,9,1,2,010,4,1,2,012,5,1,2,01,15,1,2,011,10,1,2,014,2,1,2,013,3,1,2,010,3,1,2,014,7,1,2,014,6,1,2,013,10,1,2,02,11,1,2,013,6,1,2,013,3,1,2,09,8,1,2,04,2,1,2,04,15,1,2,011,1,1,2,09,15,1,2,01,5,1,2,012,9,1,2,05,13,1,2,012,14,1,2,010,2,1,2,05,3,1,2,08,4,1,2,09,13,1,2,01,8,1,2,014,3,1,2,010,10,1,2,012,8,1,2,01,13,1,2,09,15,1,2,04,8,1,2,07,14,1,2,013,1,1,2,013,9,1,2,013,13,1,2,05,1,1,2,013,11,1,2,04,9,1,2,06,10,1,2,015,1,1,2,04,10,1,2,06,7,1,2,0